WARNING: for repeatability, setting FPU to use double precision
============================[ Problem Statistics ]=============================
|                                                                             |
|  Number of variables:        217439                                         |
|  Number of clauses:          489222                                         |
|  Parse time:                   0.16 s                                       |
|                                                                             |
============================[ Search Statistics ]==============================
| Conflicts |          ORIGINAL         |          LEARNT          | Progress |
|           |    Vars  Clauses Literals |    Limit  Clauses Lit/Cl |          |
===============================================================================
|       100 |  118042   465855  1048952 |   170813      100     11 | 45.713 % |
|       250 |  118042   465855  1048952 |   187894      250     14 | 45.713 % |
|       475 |  118042   465855  1048952 |   206684      475     15 | 45.713 % |
|       812 |  118042   465855  1048952 |   227352      812     16 | 45.713 % |
|      1318 |  118042   465855  1048952 |   250088     1318     32 | 45.713 % |
|      2077 |  118042   465855  1048952 |   275096     2077     28 | 45.713 % |
|      3216 |  118042   465855  1048952 |   302606     3216     35 | 45.713 % |
|      4924 |  118042   465855  1048952 |   332867     4924     35 | 45.713 % |
===============================================================================
restarts              : 30
conflicts             : 6121           (1594 /sec)
decisions             : 82223          (0.00 % random) (21411 /sec)
propagations          : 20737651       (5400092 /sec)
conflict literals     : 219691         (3.57 % deleted)
Memory used           : 61.00 MB
CPU time              : 3.84024 s

SATISFIABLE
